g3 0 1 0	# problem obstclal
 64 0 1 0 0	# vars, constraints, objectives, ranges, eqns
 0 1	# nonlinear constraints, objectives
 0 0	# network constraints: nonlinear, linear
 0 64 0	# nonlinear vars in constraints, objectives, both
 0 0 0 1	# linear network variables; functions; arith, flags
 0 0 0 0 0	# discrete variables: binary, integer, nonlinear (b,c,o)
 0 64	# nonzeros in Jacobian, gradients
 0 0	# max name lengths: constraints, variables
 0 0 0 0 0	# common exprs: b,c,o,c1,o1
b
0 0.12479984873691263 2000
0 0.23398804469358137 2000
0 0.3139058517398832 2000
0 0.3545560698215495 2000
0 0.3508536199376434 2000
0 0.3032616545888193 2000
0 0.21773362039921149 2000
0 0.10496852050270804 2000
0 0.23300819370293196 2000
0 0.4368685715081827 2000
0 0.5860795205039124 2000
0 0.6619757173719604 2000
0 0.6550630394444155 2000
0 0.5662062179583643 2000
0 0.4065206657787749 2000
0 0.19598201124077938 2000
0 0.3102392869847688 2000
0 0.5816696485083634 2000
0 0.780336904329305 2000
0 0.881389067461466 2000
0 0.8721851667860628 2000
0 0.7538765506662748 2000
0 0.541262860723999 2000
0 0.2609406925264503 2000
0 0.3462256483860566 2000
0 0.649140710574109 2000
0 0.8708524741879191 2000
0 0.9836262335698625 2000
0 0.9733547218280928 2000
0 0.8413228385555475 2000
0 0.6040469172128375 2000
0 0.2912086387843985 2000
0 0.3361830745849718 2000
0 0.6303118239112697 2000
0 0.8455926464349569 2000
0 0.9550953055772204 2000
0 0.9451217279001172 2000
0 0.8169195433747376 2000
0 0.586526014952403 2000
0 0.2827618808387109 2000
0 0.2814466745802556 2000
0 0.5276861930287452 2000
0 0.7079155864180293 2000
0 0.7995893249348552 2000
0 0.791239617638157 2000
0 0.6839109588318302 2000
0 0.49102946859223695 2000
0 0.23672337210420408 2000
0 0.1892933737550295 2000
0 0.35490737245813725 2000
0 0.47612475751113287 2000
0 0.5377820191379283 2000
0 0.5321662332473465 2000
0 0.4599798982822882 2000
0 0.33025305721442866 2000
0 0.15921369765374235 2000
0 0.07197448373840569 2000
0 0.13494542572148427 2000
0 0.18103556895385975 2000
0 0.20447933503124735 2000
0 0.20234406065665073 2000
0 0.1748968548247052 2000
0 0.12557118521644556 2000
0 0.06053737363010177 2000
x64
0 0.12479984873691263
1 0.23398804469358137
2 0.3139058517398832
3 0.3545560698215495
4 0.3508536199376434
5 0.3032616545888193
6 0.21773362039921149
7 0.10496852050270804
8 0.23300819370293196
9 0.4368685715081827
10 0.5860795205039124
11 0.6619757173719604
12 0.6550630394444155
13 0.5662062179583643
14 0.4065206657787749
15 0.19598201124077938
16 0.3102392869847688
17 0.5816696485083634
18 0.780336904329305
19 0.881389067461466
20 0.8721851667860628
21 0.7538765506662748
22 0.541262860723999
23 0.2609406925264503
24 0.3462256483860566
25 0.649140710574109
26 0.8708524741879191
27 0.9836262335698625
28 0.9733547218280928
29 0.8413228385555475
30 0.6040469172128375
31 0.2912086387843985
32 0.3361830745849718
33 0.6303118239112697
34 0.8455926464349569
35 0.9550953055772204
36 0.9451217279001172
37 0.8169195433747376
38 0.586526014952403
39 0.2827618808387109
40 0.2814466745802556
41 0.5276861930287452
42 0.7079155864180293
43 0.7995893249348552
44 0.791239617638157
45 0.6839109588318302
46 0.49102946859223695
47 0.23672337210420408
48 0.1892933737550295
49 0.35490737245813725
50 0.47612475751113287
51 0.5377820191379283
52 0.5321662332473465
53 0.4599798982822882
54 0.33025305721442866
55 0.15921369765374235
56 0.07197448373840569
57 0.13494542572148427
58 0.18103556895385975
59 0.20447933503124735
60 0.20234406065665073
61 0.1748968548247052
62 0.12557118521644556
63 0.06053737363010177
O0 0
o54
256
o2
o2
n0.25
o1
v1
v0
o1
v1
v0
o2
o2
n0.25
o1
v8
v0
o1
v8
v0
o2
o2
n0.25
v0
v0
o2
o2
n0.25
v0
v0
o2
o2
n0.25
o1
v9
v8
o1
v9
v8
o2
o2
n0.25
o1
v16
v8
o1
v16
v8
o2
o2
n0.25
v8
v8
o2
o2
n0.25
o1
v0
v8
o1
v0
v8
o2
o2
n0.25
o1
v17
v16
o1
v17
v16
o2
o2
n0.25
o1
v24
v16
o1
v24
v16
o2
o2
n0.25
v16
v16
o2
o2
n0.25
o1
v8
v16
o1
v8
v16
o2
o2
n0.25
o1
v25
v24
o1
v25
v24
o2
o2
n0.25
o1
v32
v24
o1
v32
v24
o2
o2
n0.25
v24
v24
o2
o2
n0.25
o1
v16
v24
o1
v16
v24
o2
o2
n0.25
o1
v33
v32
o1
v33
v32
o2
o2
n0.25
o1
v40
v32
o1
v40
v32
o2
o2
n0.25
v32
v32
o2
o2
n0.25
o1
v24
v32
o1
v24
v32
o2
o2
n0.25
o1
v41
v40
o1
v41
v40
o2
o2
n0.25
o1
v48
v40
o1
v48
v40
o2
o2
n0.25
v40
v40
o2
o2
n0.25
o1
v32
v40
o1
v32
v40
o2
o2
n0.25
o1
v49
v48
o1
v49
v48
o2
o2
n0.25
o1
v56
v48
o1
v56
v48
o2
o2
n0.25
v48
v48
o2
o2
n0.25
o1
v40
v48
o1
v40
v48
o2
o2
n0.25
o1
v57
v56
o1
v57
v56
o2
o2
n0.25
v56
v56
o2
o2
n0.25
v56
v56
o2
o2
n0.25
o1
v48
v56
o1
v48
v56
o2
o2
n0.25
o1
v2
v1
o1
v2
v1
o2
o2
n0.25
o1
v9
v1
o1
v9
v1
o2
o2
n0.25
o1
v0
v1
o1
v0
v1
o2
o2
n0.25
v1
v1
o2
o2
n0.25
o1
v10
v9
o1
v10
v9
o2
o2
n0.25
o1
v17
v9
o1
v17
v9
o2
o2
n0.25
o1
v8
v9
o1
v8
v9
o2
o2
n0.25
o1
v1
v9
o1
v1
v9
o2
o2
n0.25
o1
v18
v17
o1
v18
v17
o2
o2
n0.25
o1
v25
v17
o1
v25
v17
o2
o2
n0.25
o1
v16
v17
o1
v16
v17
o2
o2
n0.25
o1
v9
v17
o1
v9
v17
o2
o2
n0.25
o1
v26
v25
o1
v26
v25
o2
o2
n0.25
o1
v33
v25
o1
v33
v25
o2
o2
n0.25
o1
v24
v25
o1
v24
v25
o2
o2
n0.25
o1
v17
v25
o1
v17
v25
o2
o2
n0.25
o1
v34
v33
o1
v34
v33
o2
o2
n0.25
o1
v41
v33
o1
v41
v33
o2
o2
n0.25
o1
v32
v33
o1
v32
v33
o2
o2
n0.25
o1
v25
v33
o1
v25
v33
o2
o2
n0.25
o1
v42
v41
o1
v42
v41
o2
o2
n0.25
o1
v49
v41
o1
v49
v41
o2
o2
n0.25
o1
v40
v41
o1
v40
v41
o2
o2
n0.25
o1
v33
v41
o1
v33
v41
o2
o2
n0.25
o1
v50
v49
o1
v50
v49
o2
o2
n0.25
o1
v57
v49
o1
v57
v49
o2
o2
n0.25
o1
v48
v49
o1
v48
v49
o2
o2
n0.25
o1
v41
v49
o1
v41
v49
o2
o2
n0.25
o1
v58
v57
o1
v58
v57
o2
o2
n0.25
v57
v57
o2
o2
n0.25
o1
v56
v57
o1
v56
v57
o2
o2
n0.25
o1
v49
v57
o1
v49
v57
o2
o2
n0.25
o1
v3
v2
o1
v3
v2
o2
o2
n0.25
o1
v10
v2
o1
v10
v2
o2
o2
n0.25
o1
v1
v2
o1
v1
v2
o2
o2
n0.25
v2
v2
o2
o2
n0.25
o1
v11
v10
o1
v11
v10
o2
o2
n0.25
o1
v18
v10
o1
v18
v10
o2
o2
n0.25
o1
v9
v10
o1
v9
v10
o2
o2
n0.25
o1
v2
v10
o1
v2
v10
o2
o2
n0.25
o1
v19
v18
o1
v19
v18
o2
o2
n0.25
o1
v26
v18
o1
v26
v18
o2
o2
n0.25
o1
v17
v18
o1
v17
v18
o2
o2
n0.25
o1
v10
v18
o1
v10
v18
o2
o2
n0.25
o1
v27
v26
o1
v27
v26
o2
o2
n0.25
o1
v34
v26
o1
v34
v26
o2
o2
n0.25
o1
v25
v26
o1
v25
v26
o2
o2
n0.25
o1
v18
v26
o1
v18
v26
o2
o2
n0.25
o1
v35
v34
o1
v35
v34
o2
o2
n0.25
o1
v42
v34
o1
v42
v34
o2
o2
n0.25
o1
v33
v34
o1
v33
v34
o2
o2
n0.25
o1
v26
v34
o1
v26
v34
o2
o2
n0.25
o1
v43
v42
o1
v43
v42
o2
o2
n0.25
o1
v50
v42
o1
v50
v42
o2
o2
n0.25
o1
v41
v42
o1
v41
v42
o2
o2
n0.25
o1
v34
v42
o1
v34
v42
o2
o2
n0.25
o1
v51
v50
o1
v51
v50
o2
o2
n0.25
o1
v58
v50
o1
v58
v50
o2
o2
n0.25
o1
v49
v50
o1
v49
v50
o2
o2
n0.25
o1
v42
v50
o1
v42
v50
o2
o2
n0.25
o1
v59
v58
o1
v59
v58
o2
o2
n0.25
v58
v58
o2
o2
n0.25
o1
v57
v58
o1
v57
v58
o2
o2
n0.25
o1
v50
v58
o1
v50
v58
o2
o2
n0.25
o1
v4
v3
o1
v4
v3
o2
o2
n0.25
o1
v11
v3
o1
v11
v3
o2
o2
n0.25
o1
v2
v3
o1
v2
v3
o2
o2
n0.25
v3
v3
o2
o2
n0.25
o1
v12
v11
o1
v12
v11
o2
o2
n0.25
o1
v19
v11
o1
v19
v11
o2
o2
n0.25
o1
v10
v11
o1
v10
v11
o2
o2
n0.25
o1
v3
v11
o1
v3
v11
o2
o2
n0.25
o1
v20
v19
o1
v20
v19
o2
o2
n0.25
o1
v27
v19
o1
v27
v19
o2
o2
n0.25
o1
v18
v19
o1
v18
v19
o2
o2
n0.25
o1
v11
v19
o1
v11
v19
o2
o2
n0.25
o1
v28
v27
o1
v28
v27
o2
o2
n0.25
o1
v35
v27
o1
v35
v27
o2
o2
n0.25
o1
v26
v27
o1
v26
v27
o2
o2
n0.25
o1
v19
v27
o1
v19
v27
o2
o2
n0.25
o1
v36
v35
o1
v36
v35
o2
o2
n0.25
o1
v43
v35
o1
v43
v35
o2
o2
n0.25
o1
v34
v35
o1
v34
v35
o2
o2
n0.25
o1
v27
v35
o1
v27
v35
o2
o2
n0.25
o1
v44
v43
o1
v44
v43
o2
o2
n0.25
o1
v51
v43
o1
v51
v43
o2
o2
n0.25
o1
v42
v43
o1
v42
v43
o2
o2
n0.25
o1
v35
v43
o1
v35
v43
o2
o2
n0.25
o1
v52
v51
o1
v52
v51
o2
o2
n0.25
o1
v59
v51
o1
v59
v51
o2
o2
n0.25
o1
v50
v51
o1
v50
v51
o2
o2
n0.25
o1
v43
v51
o1
v43
v51
o2
o2
n0.25
o1
v60
v59
o1
v60
v59
o2
o2
n0.25
v59
v59
o2
o2
n0.25
o1
v58
v59
o1
v58
v59
o2
o2
n0.25
o1
v51
v59
o1
v51
v59
o2
o2
n0.25
o1
v5
v4
o1
v5
v4
o2
o2
n0.25
o1
v12
v4
o1
v12
v4
o2
o2
n0.25
o1
v3
v4
o1
v3
v4
o2
o2
n0.25
v4
v4
o2
o2
n0.25
o1
v13
v12
o1
v13
v12
o2
o2
n0.25
o1
v20
v12
o1
v20
v12
o2
o2
n0.25
o1
v11
v12
o1
v11
v12
o2
o2
n0.25
o1
v4
v12
o1
v4
v12
o2
o2
n0.25
o1
v21
v20
o1
v21
v20
o2
o2
n0.25
o1
v28
v20
o1
v28
v20
o2
o2
n0.25
o1
v19
v20
o1
v19
v20
o2
o2
n0.25
o1
v12
v20
o1
v12
v20
o2
o2
n0.25
o1
v29
v28
o1
v29
v28
o2
o2
n0.25
o1
v36
v28
o1
v36
v28
o2
o2
n0.25
o1
v27
v28
o1
v27
v28
o2
o2
n0.25
o1
v20
v28
o1
v20
v28
o2
o2
n0.25
o1
v37
v36
o1
v37
v36
o2
o2
n0.25
o1
v44
v36
o1
v44
v36
o2
o2
n0.25
o1
v35
v36
o1
v35
v36
o2
o2
n0.25
o1
v28
v36
o1
v28
v36
o2
o2
n0.25
o1
v45
v44
o1
v45
v44
o2
o2
n0.25
o1
v52
v44
o1
v52
v44
o2
o2
n0.25
o1
v43
v44
o1
v43
v44
o2
o2
n0.25
o1
v36
v44
o1
v36
v44
o2
o2
n0.25
o1
v53
v52
o1
v53
v52
o2
o2
n0.25
o1
v60
v52
o1
v60
v52
o2
o2
n0.25
o1
v51
v52
o1
v51
v52
o2
o2
n0.25
o1
v44
v52
o1
v44
v52
o2
o2
n0.25
o1
v61
v60
o1
v61
v60
o2
o2
n0.25
v60
v60
o2
o2
n0.25
o1
v59
v60
o1
v59
v60
o2
o2
n0.25
o1
v52
v60
o1
v52
v60
o2
o2
n0.25
o1
v6
v5
o1
v6
v5
o2
o2
n0.25
o1
v13
v5
o1
v13
v5
o2
o2
n0.25
o1
v4
v5
o1
v4
v5
o2
o2
n0.25
v5
v5
o2
o2
n0.25
o1
v14
v13
o1
v14
v13
o2
o2
n0.25
o1
v21
v13
o1
v21
v13
o2
o2
n0.25
o1
v12
v13
o1
v12
v13
o2
o2
n0.25
o1
v5
v13
o1
v5
v13
o2
o2
n0.25
o1
v22
v21
o1
v22
v21
o2
o2
n0.25
o1
v29
v21
o1
v29
v21
o2
o2
n0.25
o1
v20
v21
o1
v20
v21
o2
o2
n0.25
o1
v13
v21
o1
v13
v21
o2
o2
n0.25
o1
v30
v29
o1
v30
v29
o2
o2
n0.25
o1
v37
v29
o1
v37
v29
o2
o2
n0.25
o1
v28
v29
o1
v28
v29
o2
o2
n0.25
o1
v21
v29
o1
v21
v29
o2
o2
n0.25
o1
v38
v37
o1
v38
v37
o2
o2
n0.25
o1
v45
v37
o1
v45
v37
o2
o2
n0.25
o1
v36
v37
o1
v36
v37
o2
o2
n0.25
o1
v29
v37
o1
v29
v37
o2
o2
n0.25
o1
v46
v45
o1
v46
v45
o2
o2
n0.25
o1
v53
v45
o1
v53
v45
o2
o2
n0.25
o1
v44
v45
o1
v44
v45
o2
o2
n0.25
o1
v37
v45
o1
v37
v45
o2
o2
n0.25
o1
v54
v53
o1
v54
v53
o2
o2
n0.25
o1
v61
v53
o1
v61
v53
o2
o2
n0.25
o1
v52
v53
o1
v52
v53
o2
o2
n0.25
o1
v45
v53
o1
v45
v53
o2
o2
n0.25
o1
v62
v61
o1
v62
v61
o2
o2
n0.25
v61
v61
o2
o2
n0.25
o1
v60
v61
o1
v60
v61
o2
o2
n0.25
o1
v53
v61
o1
v53
v61
o2
o2
n0.25
o1
v7
v6
o1
v7
v6
o2
o2
n0.25
o1
v14
v6
o1
v14
v6
o2
o2
n0.25
o1
v5
v6
o1
v5
v6
o2
o2
n0.25
v6
v6
o2
o2
n0.25
o1
v15
v14
o1
v15
v14
o2
o2
n0.25
o1
v22
v14
o1
v22
v14
o2
o2
n0.25
o1
v13
v14
o1
v13
v14
o2
o2
n0.25
o1
v6
v14
o1
v6
v14
o2
o2
n0.25
o1
v23
v22
o1
v23
v22
o2
o2
n0.25
o1
v30
v22
o1
v30
v22
o2
o2
n0.25
o1
v21
v22
o1
v21
v22
o2
o2
n0.25
o1
v14
v22
o1
v14
v22
o2
o2
n0.25
o1
v31
v30
o1
v31
v30
o2
o2
n0.25
o1
v38
v30
o1
v38
v30
o2
o2
n0.25
o1
v29
v30
o1
v29
v30
o2
o2
n0.25
o1
v22
v30
o1
v22
v30
o2
o2
n0.25
o1
v39
v38
o1
v39
v38
o2
o2
n0.25
o1
v46
v38
o1
v46
v38
o2
o2
n0.25
o1
v37
v38
o1
v37
v38
o2
o2
n0.25
o1
v30
v38
o1
v30
v38
o2
o2
n0.25
o1
v47
v46
o1
v47
v46
o2
o2
n0.25
o1
v54
v46
o1
v54
v46
o2
o2
n0.25
o1
v45
v46
o1
v45
v46
o2
o2
n0.25
o1
v38
v46
o1
v38
v46
o2
o2
n0.25
o1
v55
v54
o1
v55
v54
o2
o2
n0.25
o1
v62
v54
o1
v62
v54
o2
o2
n0.25
o1
v53
v54
o1
v53
v54
o2
o2
n0.25
o1
v46
v54
o1
v46
v54
o2
o2
n0.25
o1
v63
v62
o1
v63
v62
o2
o2
n0.25
v62
v62
o2
o2
n0.25
o1
v61
v62
o1
v61
v62
o2
o2
n0.25
o1
v54
v62
o1
v54
v62
o2
o2
n0.25
v7
v7
o2
o2
n0.25
o1
v15
v7
o1
v15
v7
o2
o2
n0.25
o1
v6
v7
o1
v6
v7
o2
o2
n0.25
v7
v7
o2
o2
n0.25
v15
v15
o2
o2
n0.25
o1
v23
v15
o1
v23
v15
o2
o2
n0.25
o1
v14
v15
o1
v14
v15
o2
o2
n0.25
o1
v7
v15
o1
v7
v15
o2
o2
n0.25
v23
v23
o2
o2
n0.25
o1
v31
v23
o1
v31
v23
o2
o2
n0.25
o1
v22
v23
o1
v22
v23
o2
o2
n0.25
o1
v15
v23
o1
v15
v23
o2
o2
n0.25
v31
v31
o2
o2
n0.25
o1
v39
v31
o1
v39
v31
o2
o2
n0.25
o1
v30
v31
o1
v30
v31
o2
o2
n0.25
o1
v23
v31
o1
v23
v31
o2
o2
n0.25
v39
v39
o2
o2
n0.25
o1
v47
v39
o1
v47
v39
o2
o2
n0.25
o1
v38
v39
o1
v38
v39
o2
o2
n0.25
o1
v31
v39
o1
v31
v39
o2
o2
n0.25
v47
v47
o2
o2
n0.25
o1
v55
v47
o1
v55
v47
o2
o2
n0.25
o1
v46
v47
o1
v46
v47
o2
o2
n0.25
o1
v39
v47
o1
v39
v47
o2
o2
n0.25
v55
v55
o2
o2
n0.25
o1
v63
v55
o1
v63
v55
o2
o2
n0.25
o1
v54
v55
o1
v54
v55
o2
o2
n0.25
o1
v47
v55
o1
v47
v55
o2
o2
n0.25
v63
v63
o2
o2
n0.25
v63
v63
o2
o2
n0.25
o1
v62
v63
o1
v62
v63
o2
o2
n0.25
o1
v55
v63
o1
v55
v63
k63
0
0
0
0
0
0
0
0
0
0
0
0
0
0
0
0
0
0
0
0
0
0
0
0
0
0
0
0
0
0
0
0
0
0
0
0
0
0
0
0
0
0
0
0
0
0
0
0
0
0
0
0
0
0
0
0
0
0
0
0
0
0
0
G0 64
0 -0.012345679012345678
1 -0.012345679012345678
2 -0.012345679012345678
3 -0.012345679012345678
4 -0.012345679012345678
5 -0.012345679012345678
6 -0.012345679012345678
7 -0.012345679012345678
8 -0.012345679012345678
9 -0.012345679012345678
10 -0.012345679012345678
11 -0.012345679012345678
12 -0.012345679012345678
13 -0.012345679012345678
14 -0.012345679012345678
15 -0.012345679012345678
16 -0.012345679012345678
17 -0.012345679012345678
18 -0.012345679012345678
19 -0.012345679012345678
20 -0.012345679012345678
21 -0.012345679012345678
22 -0.012345679012345678
23 -0.012345679012345678
24 -0.012345679012345678
25 -0.012345679012345678
26 -0.012345679012345678
27 -0.012345679012345678
28 -0.012345679012345678
29 -0.012345679012345678
30 -0.012345679012345678
31 -0.012345679012345678
32 -0.012345679012345678
33 -0.012345679012345678
34 -0.012345679012345678
35 -0.012345679012345678
36 -0.012345679012345678
37 -0.012345679012345678
38 -0.012345679012345678
39 -0.012345679012345678
40 -0.012345679012345678
41 -0.012345679012345678
42 -0.012345679012345678
43 -0.012345679012345678
44 -0.012345679012345678
45 -0.012345679012345678
46 -0.012345679012345678
47 -0.012345679012345678
48 -0.012345679012345678
49 -0.012345679012345678
50 -0.012345679012345678
51 -0.012345679012345678
52 -0.012345679012345678
53 -0.012345679012345678
54 -0.012345679012345678
55 -0.012345679012345678
56 -0.012345679012345678
57 -0.012345679012345678
58 -0.012345679012345678
59 -0.012345679012345678
60 -0.012345679012345678
61 -0.012345679012345678
62 -0.012345679012345678
63 -0.012345679012345678
